
Gurobi 10.0.1 (linux64) logging started Sun Nov 26 15:49:42 2023

Set parameter LogFile to value "ArtificialInstance/ExperimentV2/S4T5K1/AdRo/gurobiDoRo50.txt"
Gurobi Optimizer version 10.0.1 build v10.0.1rc0 (linux64)

CPU model: AMD EPYC 7H12 64-Core Processor, instruction set [SSE2|AVX|AVX2]
Thread count: 128 physical cores, 128 logical processors, using up to 32 threads

Academic license 656792 - for non-commercial use only - registered to b.___@student.vu.nl
Optimize a model with 5659 rows, 5206 columns and 20567 nonzeros
Model fingerprint: 0x7ac50bf2
Variable types: 1 continuous, 5205 integer (5205 binary)
Coefficient statistics:
  Matrix range     [1e+00, 4e+01]
  Objective range  [1e+00, 2e+01]
  Bounds range     [1e+00, 1e+00]
  RHS range        [1e+00, 1e+00]
Presolve removed 1901 rows and 1499 columns
Presolve time: 0.07s
Presolved: 3758 rows, 3707 columns, 14424 nonzeros
Variable types: 1 continuous, 3706 integer (3706 binary)
Found heuristic solution: objective 85.6392736

Root relaxation: objective 7.355070e+01, 1269 iterations, 0.03 seconds (0.02 work units)

    Nodes    |    Current Node    |     Objective Bounds      |     Work
 Expl Unexpl |  Obj  Depth IntInf | Incumbent    BestBd   Gap | It/Node Time

     0     0   73.55070    0   46   85.63927   73.55070  14.1%     -    0s
H    0     0                      73.5507016   73.55070  0.00%     -    0s
     0     0   73.55070    0   46   73.55070   73.55070  0.00%     -    0s

Explored 1 nodes (2297 simplex iterations) in 0.16 seconds (0.11 work units)
Thread count was 32 (of 128 available processors)

Solution count 2: 73.5507 85.6393 

Optimal solution found (tolerance 1.00e-04)
Best objective 7.355070156106e+01, best bound 7.355070156106e+01, gap 0.0000%
